experiment/data/hgs-res/Vrp-Set-B-n52/Vrp-Set-B-n52-hgs/0.hgs1.vrp
NAME : 0
COMMENT : CVRP Instance
TYPE : CVRP
DIMENSION : 52
EDGE_WEIGHT_TYPE : EUC_2D
CAPACITY : 100
NODE_COORD_SECTION
1	29.0	33.0
2	41.0	11.0
3	31.0	87.0
4	91.0	27.0
5	53.0	87.0
6	7.0	19.0
7	27.0	19.0
8	1.0	41.0
9	8.0	20.0
10	40.0	92.0
11	14.0	20.0
12	92.0	32.0
13	62.0	94.0
14	45.0	97.0
15	96.0	36.0
16	47.0	101.0
17	40.0	92.0
18	49.0	97.0
19	48.0	12.0
20	45.0	101.0
21	46.0	16.0
22	92.0	34.0
23	49.0	95.0
24	62.0	92.0
25	96.0	28.0
26	28.0	22.0
27	47.0	95.0
28	9.0	21.0
29	92.0	30.0
30	12.0	22.0
31	48.0	12.0
32	94.0	28.0
33	43.0	99.0
34	8.0	42.0
35	43.0	99.0
36	8.0	42.0
37	30.0	20.0
38	16.0	24.0
39	36.0	92.0
40	98.0	34.0
41	36.0	28.0
42	28.0	26.0
43	42.0	18.0
44	2.0	50.0
45	16.0	20.0
46	56.0	90.0
47	45.0	97.0
48	17.0	23.0
49	34.0	88.0
50	47.0	99.0
51	62.0	96.0
52	8.0	24.0
DEMAND_SECTION
1	0
2	22
3	8
4	3
5	6
6	10
7	18
8	8
9	13
10	13
11	3
12	10
13	6
14	23
15	8
16	4
17	13
18	6
19	5
20	10
21	22
22	13
23	13
24	18
25	14
26	14
27	26
28	23
29	4
30	25
31	9
32	8
33	16
34	3
35	1
36	17
37	9
38	15
39	2
40	19
41	7
42	6
43	22
44	22
45	10
46	7
47	4
48	23
49	13
50	10
51	8
52	14
DEPOT_SECTION
1
-1
EOF
