experiment/data/hgs-res/Vrp-Set-B-n52/Vrp-Set-B-n52-hgs/0.hgs1.log
=========== Algorithm Parameters =================
---- nbGranular        is set to 20
---- mu                is set to 25
---- lambda            is set to 40
---- nbElite           is set to 4
---- nbClose           is set to 5
---- targetFeasible    is set to 0.2
---- seed              is set to 1234
---- nbIter            is set to 20000
---- timeLimit         is set to 0
---- useSwapStar       is set to 1
==================================================
----- READING INSTANCE: baseline_results/cvrp_hgs/Vrp-Set-B-n52/Vrp-Set-B-n52-hgs/0.hgs1.vrp
----- FLEET SIZE WAS NOT SPECIFIED: DEFAULT INITIALIZATION TO 11 VEHICLES
----- INSTANCE SUCCESSFULLY LOADED WITH 51 CLIENTS AND 11 VEHICLES
----- BUILDING INITIAL POPULATION
----- STARTING GENETIC ALGORITHM
It      0      2 | T(s) 0.04 | Feas 63 750.14 754.73 | Inf 51 707.12 715.35 | Div 0.25 0.25 | Feas 0.09 1.00 | Pen 4.49 0.85
It    500    502 | T(s) 0.21 | Feas 33 750.14 752.42 | Inf 64 731.10 731.46 | Div 0.32 0.19 | Feas 0.15 1.00 | Pen 7.92 0.38
It   1000    313 | T(s) 0.36 | Feas 57 749.97 751.14 | Inf 37 722.79 725.53 | Div 0.27 0.27 | Feas 0.23 1.00 | Pen 6.73 0.17
It   1500    813 | T(s) 0.52 | Feas 33 749.97 752.20 | Inf 27 723.73 726.39 | Div 0.32 0.29 | Feas 0.20 1.00 | Pen 6.86 0.10
It   2000   1313 | T(s) 0.67 | Feas 51 749.97 750.62 | Inf 47 724.69 725.17 | Div 0.25 0.20 | Feas 0.24 1.00 | Pen 7.00 0.10
It   2500   1813 | T(s) 0.83 | Feas 50 749.97 750.46 | Inf 43 725.67 726.90 | Div 0.24 0.24 | Feas 0.20 1.00 | Pen 7.14 0.10
It   3000   2313 | T(s) 0.98 | Feas 48 749.97 750.86 | Inf 38 735.67 736.38 | Div 0.26 0.22 | Feas 0.13 1.00 | Pen 8.57 0.10
It   3500   2813 | T(s) 1.13 | Feas 48 749.97 750.93 | Inf 58 726.67 726.92 | Div 0.26 0.18 | Feas 0.17 1.00 | Pen 7.28 0.10
It   4000   3313 | T(s) 1.28 | Feas 29 749.97 752.01 | Inf 40 727.69 729.20 | Div 0.30 0.25 | Feas 0.21 1.00 | Pen 7.43 0.10
It   4500   3813 | T(s) 1.43 | Feas 49 749.97 750.37 | Inf 48 728.73 729.49 | Div 0.23 0.21 | Feas 0.19 1.00 | Pen 7.58 0.10
It   5000   4313 | T(s) 1.59 | Feas 36 749.97 750.64 | Inf 48 728.73 729.71 | Div 0.26 0.23 | Feas 0.19 1.00 | Pen 7.58 0.10
It   5500   4813 | T(s) 1.75 | Feas 58 749.97 750.52 | Inf 35 729.79 731.15 | Div 0.24 0.24 | Feas 0.25 1.00 | Pen 7.73 0.10
It   6000   5313 | T(s) 1.91 | Feas 27 749.97 753.05 | Inf 34 730.88 732.13 | Div 0.32 0.24 | Feas 0.18 1.00 | Pen 7.88 0.10
It   6500   5813 | T(s) 2.06 | Feas 49 749.97 750.61 | Inf 62 731.98 732.81 | Div 0.26 0.21 | Feas 0.24 1.00 | Pen 8.04 0.10
It   7000   6313 | T(s) 2.20 | Feas 30 749.97 750.60 | Inf 59 733.10 733.37 | Div 0.27 0.17 | Feas 0.56 1.00 | Pen 8.20 0.10
It   7500   6813 | T(s) 2.36 | Feas 55 749.97 750.28 | Inf 35 725.47 726.63 | Div 0.23 0.25 | Feas 0.29 1.00 | Pen 7.11 0.10
It   8000   7313 | T(s) 2.51 | Feas 28 749.97 752.69 | Inf 60 726.46 726.75 | Div 0.31 0.18 | Feas 0.17 1.00 | Pen 7.25 0.10
It   8500   7813 | T(s) 2.66 | Feas 37 749.97 750.23 | Inf 29 728.51 729.87 | Div 0.22 0.25 | Feas 0.52 1.00 | Pen 7.55 0.10
It   9000   8313 | T(s) 2.81 | Feas 29 749.97 753.14 | Inf 49 729.57 730.37 | Div 0.30 0.21 | Feas 0.22 1.00 | Pen 7.70 0.10
It   9500   8813 | T(s) 2.97 | Feas 29 749.97 751.97 | Inf 33 721.49 722.56 | Div 0.31 0.23 | Feas 0.26 1.00 | Pen 6.54 0.10
It  10000   9313 | T(s) 3.13 | Feas 51 749.97 750.65 | Inf 34 722.40 723.17 | Div 0.24 0.22 | Feas 0.16 1.00 | Pen 6.67 0.10
It  10500   9813 | T(s) 3.28 | Feas 30 749.97 750.80 | Inf 62 723.34 723.59 | Div 0.27 0.17 | Feas 0.27 1.00 | Pen 6.81 0.10
It  11000  10313 | T(s) 3.44 | Feas 42 749.97 750.61 | Inf 57 724.29 724.62 | Div 0.26 0.18 | Feas 0.28 1.00 | Pen 6.94 0.10
It  11500  10813 | T(s) 3.59 | Feas 65 749.97 750.49 | Inf 54 724.29 724.55 | Div 0.23 0.18 | Feas 0.18 1.00 | Pen 6.94 0.10
It  12000  11313 | T(s) 3.75 | Feas 54 749.97 750.27 | Inf 39 735.18 736.44 | Div 0.23 0.24 | Feas 0.25 1.00 | Pen 8.50 0.10
It  12500  11813 | T(s) 3.90 | Feas 32 749.97 750.73 | Inf 47 726.26 727.60 | Div 0.27 0.23 | Feas 0.31 1.00 | Pen 7.22 0.10
It  13000  12313 | T(s) 4.05 | Feas 27 749.97 751.65 | Inf 52 728.30 728.92 | Div 0.31 0.20 | Feas 0.19 1.00 | Pen 7.52 0.10
It  13500  12813 | T(s) 4.20 | Feas 44 749.97 750.45 | Inf 27 729.35 731.83 | Div 0.25 0.29 | Feas 0.22 1.00 | Pen 7.67 0.10
It  14000  13313 | T(s) 4.36 | Feas 27 749.97 752.70 | Inf 54 731.52 731.98 | Div 0.30 0.20 | Feas 0.14 1.00 | Pen 7.98 0.10
It  14500  13813 | T(s) 4.51 | Feas 39 749.97 750.86 | Inf 35 723.14 724.78 | Div 0.26 0.26 | Feas 0.17 1.00 | Pen 6.78 0.10
It  15000  14313 | T(s) 4.67 | Feas 51 749.97 750.60 | Inf 33 733.78 735.01 | Div 0.25 0.26 | Feas 0.20 1.00 | Pen 8.30 0.10
It  15500  14813 | T(s) 4.82 | Feas 31 749.97 750.40 | Inf 53 725.06 725.96 | Div 0.24 0.21 | Feas 0.22 1.00 | Pen 7.05 0.10
It  16000  15313 | T(s) 4.97 | Feas 31 749.97 750.68 | Inf 52 736.12 736.68 | Div 0.27 0.20 | Feas 0.12 1.00 | Pen 8.63 0.10
It  16500  15813 | T(s) 5.12 | Feas 60 749.97 750.78 | Inf 32 738.56 740.10 | Div 0.25 0.25 | Feas 0.11 1.00 | Pen 8.98 0.10
It  17000  16313 | T(s) 5.27 | Feas 47 749.97 751.09 | Inf 37 731.29 731.89 | Div 0.27 0.21 | Feas 0.13 1.00 | Pen 7.94 0.10
It  17500  16813 | T(s) 5.42 | Feas 60 749.97 750.51 | Inf 57 722.95 723.59 | Div 0.23 0.20 | Feas 0.16 1.00 | Pen 6.75 0.10
It  18000  17313 | T(s) 5.58 | Feas 40 749.97 750.66 | Inf 51 733.54 734.46 | Div 0.26 0.23 | Feas 0.15 1.00 | Pen 8.27 0.10
It  18500  17813 | T(s) 5.73 | Feas 56 749.97 750.24 | Inf 65 725.84 726.81 | Div 0.22 0.22 | Feas 0.30 1.00 | Pen 7.17 0.10
It  19000  18313 | T(s) 5.88 | Feas 59 749.97 750.59 | Inf 55 726.85 727.24 | Div 0.25 0.19 | Feas 0.31 1.00 | Pen 7.31 0.10
It  19500  18813 | T(s) 6.04 | Feas 31 749.97 752.44 | Inf 45 727.87 728.97 | Div 0.32 0.24 | Feas 0.23 1.00 | Pen 7.46 0.10
It  20000  19313 | T(s) 6.19 | Feas 60 749.97 750.30 | Inf 43 720.93 721.28 | Div 0.21 0.20 | Feas 0.32 1.00 | Pen 6.46 0.10
It  20500  19813 | T(s) 6.34 | Feas 63 749.97 750.50 | Inf 41 729.98 730.94 | Div 0.24 0.23 | Feas 0.19 1.00 | Pen 7.76 0.10
----- GENETIC ALGORITHM FINISHED AFTER 20689 ITERATIONS. TIME SPENT: 6.40048
----- WRITING BEST SOLUTION IN : baseline_results/cvrp_hgs/Vrp-Set-B-n52/Vrp-Set-B-n52-hgs/0.hgs1.tour
