experiment/data/hgs-res/Vrp-Set-B-n52/Vrp-Set-B-n52-hgs/0.hgs1.tour
Route #1: 37 29 27 8 5 10 44
Route #2: 41 25 6 36
Route #3: 40 42 20 30 18 1
Route #4: 4 45 14 39 24 31 3 28 11 21
Route #5: 38 34 32 19 15 49 17 22 50 12 23
Route #6: 26 13 46 16 9 48 2
Route #7: 35 33 43 7 51 47
Cost 749.97
